c User generated cnf file
p cnf 11 47
11 -8 11 0 
3 6 -11 0 
-9 3 1 0 
1 3 -7 0 
1 7 -3 0 
8 2 -10 0 
2 2 -9 0 
7 -4 5 0 
8 -2 9 0 
-9 6 1 0 
3 -5 5 0 
-1 4 4 0 
-2 9 6 0 
4 -1 11 0 
9 -6 4 0 
11 8 -9 0 
-8 3 5 0 
11 6 -3 0 
7 -5 5 0 
11 -1 4 0 
1 6 -4 0 
-3 3 3 0 
-7 1 3 0 
-4 3 8 0 
-2 9 2 0 
11 10 -8 0 
-8 4 4 0 
-5 9 7 0 
9 -6 5 0 
-3 3 9 0 
-10 4 1 0 
-2 6 11 0 
-9 2 3 0 
-3 4 4 0 
10 7 -10 0 
3 6 -11 0 
-10 3 7 0 
-7 11 3 0 
1 1 -10 0 
4 -5 6 0 
6 9 -2 0 
-4 6 4 0 
11 9 -2 0 
8 8 -5 0 
-9 3 7 0 
-5 4 7 0 
5 -5 11 0 
